Route #1: 139 47 56 146 149 4 109 145 144 12
Route #2: 17 147 64 88 40 136 13 67 134 55
Route #3: 142 148 87 150 141 19 94 41 66 111 135 143
Route #4: 63 137 92 42 93 65 107 44 37
Route #5: 108 52 15 45 91 72 33 124 123 71 90 103
Route #6: 5 10 54 39 89 117 73 106 125 122
Route #7: 76 49 104 30 105 75 74 34 9 38 78
Route #8: 11 126 16 127 53 129 29 79 21 118 130 50 62
Route #9: 116 121 115 36 85 35 84 128
Route #10: 100 2 83 131 20 59 3 101 22 51 119 77
Route #11: 81 60 8 140 82 31 28 70 80 120 1 32
Route #12: 46 102 6 57 23 69 7 61 112 48 138 27
Route #13: 98 97 86 43 99 114 113 26
Route #14: 68 132 24 96 95 25 58 14 133 110 18
Cost 1145
